p cnf 728 2100
1 -2 0
1 -3 0
2 3 -1 0
4 -1 0
1 -4 0
5 -6 0
5 -7 0
6 7 -5 0
3 -5 0
-3 5 0
8 -9 0
8 -10 0
9 10 -8 0
7 -8 0
-7 8 0
11 -12 0
11 -13 0
12 13 -11 0
10 -11 0
-10 11 0
14 -15 0
14 -16 0
15 16 -14 0
13 -14 0
-13 14 0
17 -18 0
17 -19 0
18 19 -17 0
16 -17 0
-16 17 0
20 -21 0
20 -22 0
21 22 -20 0
19 -20 0
-19 20 0
23 -24 0
23 -25 0
24 25 -23 0
22 -23 0
-22 23 0
26 -27 0
26 -28 0
27 28 -26 0
25 -26 0
-25 26 0
29 -30 0
29 -31 0
30 31 -29 0
28 -29 0
-28 29 0
-18 32 0
-21 32 0
-24 32 0
-27 32 0
-30 32 0
32 -33 0
34 0
31 -32 0
-31 32 0
35 -36 0
35 -37 0
36 37 -35 0
38 -35 0
35 -38 0
39 -40 0
39 -41 0
40 41 -39 0
37 -39 0
-37 39 0
42 -43 0
42 -44 0
43 44 -42 0
41 -42 0
-41 42 0
45 -46 0
45 -47 0
46 47 -45 0
44 -45 0
-44 45 0
48 -49 0
48 -50 0
49 50 -48 0
47 -48 0
-47 48 0
51 -52 0
51 -53 0
52 53 -51 0
50 -51 0
-50 51 0
54 -55 0
54 -56 0
55 56 -54 0
53 -54 0
-53 54 0
-46 57 0
-49 57 0
-52 57 0
-55 57 0
57 -58 0
46 49 52 55 58 -57 0
56 -57 0
-56 57 0
59 -60 0
59 -61 0
60 61 -59 0
62 -59 0
59 -62 0
63 -64 0
63 -65 0
64 65 -63 0
61 -63 0
-61 63 0
66 -67 0
66 -68 0
67 68 -66 0
65 -66 0
-65 66 0
69 -70 0
69 -71 0
70 71 -69 0
68 -69 0
-68 69 0
72 -73 0
72 -74 0
73 74 -72 0
71 -72 0
-71 72 0
75 -76 0
75 -77 0
76 77 -75 0
74 -75 0
-74 75 0
78 -79 0
78 -80 0
79 80 -78 0
77 -78 0
-77 78 0
81 -82 0
81 -83 0
82 83 -81 0
80 -81 0
-80 81 0
84 -85 0
84 -86 0
85 86 -84 0
83 -84 0
-83 84 0
87 -88 0
87 -89 0
88 89 -87 0
86 -87 0
-86 87 0
-76 90 0
-79 90 0
-82 90 0
-85 90 0
-88 90 0
90 -91 0
92 0
89 -90 0
-89 90 0
93 -94 0
93 -95 0
94 95 -93 0
96 -93 0
93 -96 0
97 -98 0
97 -99 0
98 99 -97 0
95 -97 0
-95 97 0
100 -101 0
100 -102 0
101 102 -100 0
99 -100 0
-99 100 0
103 -104 0
103 -105 0
104 105 -103 0
102 -103 0
-102 103 0
106 -107 0
106 -108 0
107 108 -106 0
105 -106 0
-105 106 0
109 -110 0
109 -111 0
110 111 -109 0
108 -109 0
-108 109 0
112 -113 0
112 -114 0
113 114 -112 0
111 -112 0
-111 112 0
115 -116 0
115 -117 0
116 117 -115 0
114 -115 0
-114 115 0
118 -119 0
118 -120 0
119 120 -118 0
117 -118 0
-117 118 0
121 -122 0
121 -123 0
122 123 -121 0
120 -121 0
-120 121 0
-110 124 0
-113 124 0
-116 124 0
-119 124 0
-122 124 0
124 -125 0
126 0
123 -124 0
-123 124 0
127 -128 0
127 -129 0
128 129 -127 0
130 -127 0
127 -130 0
131 -132 0
131 -133 0
132 133 -131 0
129 -131 0
-129 131 0
134 -135 0
134 -136 0
135 136 -134 0
133 -134 0
-133 134 0
137 -138 0
137 -139 0
138 139 -137 0
136 -137 0
-136 137 0
140 -141 0
140 -142 0
141 142 -140 0
139 -140 0
-139 140 0
143 -144 0
143 -145 0
144 145 -143 0
142 -143 0
-142 143 0
146 -147 0
146 -148 0
147 148 -146 0
145 -146 0
-145 146 0
149 -150 0
149 -151 0
150 151 -149 0
148 -149 0
-148 149 0
-141 152 0
-144 152 0
-147 152 0
-150 152 0
152 -153 0
141 144 147 150 153 -152 0
151 -152 0
-151 152 0
154 -155 0
154 -156 0
155 156 -154 0
157 -154 0
154 -157 0
158 -159 0
158 -160 0
159 160 -158 0
156 -158 0
-156 158 0
161 -162 0
161 -163 0
162 163 -161 0
160 -161 0
-160 161 0
163 -164 0
164 -163 0
165 -166 0
165 -167 0
166 167 -165 0
168 -165 0
165 -168 0
169 -170 0
169 -171 0
170 171 -169 0
167 -169 0
-167 169 0
172 -173 0
172 -174 0
173 174 -172 0
171 -172 0
-171 172 0
175 -176 0
175 -177 0
176 177 -175 0
174 -175 0
-174 175 0
178 -179 0
178 -180 0
179 180 -178 0
177 -178 0
-177 178 0
181 -182 0
181 -183 0
182 183 -181 0
180 -181 0
-180 181 0
184 -185 0
184 -186 0
185 186 -184 0
183 -184 0
-183 184 0
187 -188 0
187 -189 0
188 189 -187 0
186 -187 0
-186 187 0
-179 190 0
-182 190 0
-185 190 0
-188 190 0
190 -191 0
179 182 185 188 191 -190 0
189 -190 0
-189 190 0
192 -193 0
192 -194 0
193 194 -192 0
195 -192 0
192 -195 0
196 -197 0
196 -198 0
197 198 -196 0
194 -196 0
-194 196 0
199 -200 0
199 -201 0
200 201 -199 0
198 -199 0
-198 199 0
202 -203 0
202 -204 0
203 204 -202 0
201 -202 0
-201 202 0
205 -206 0
205 -207 0
206 207 -205 0
204 -205 0
-204 205 0
208 -209 0
208 -210 0
209 210 -208 0
207 -208 0
-207 208 0
211 -212 0
211 -213 0
212 213 -211 0
210 -211 0
-210 211 0
214 -215 0
214 -216 0
215 216 -214 0
213 -214 0
-213 214 0
217 -218 0
217 -219 0
218 219 -217 0
216 -217 0
-216 217 0
-212 220 0
-215 220 0
-218 220 0
220 -221 0
212 215 218 221 -220 0
219 -220 0
-219 220 0
222 -223 0
222 -224 0
223 224 -222 0
225 -222 0
222 -225 0
226 -227 0
226 -228 0
227 228 -226 0
224 -226 0
-224 226 0
229 -230 0
229 -231 0
230 231 -229 0
228 -229 0
-228 229 0
232 -233 0
232 -234 0
233 234 -232 0
231 -232 0
-231 232 0
235 -236 0
235 -237 0
236 237 -235 0
234 -235 0
-234 235 0
238 -239 0
238 -240 0
239 240 -238 0
237 -238 0
-237 238 0
241 -242 0
241 -243 0
242 243 -241 0
240 -241 0
-240 241 0
244 -245 0
244 -246 0
245 246 -244 0
243 -244 0
-243 244 0
247 -248 0
247 -249 0
248 249 -247 0
246 -247 0
-246 247 0
250 -251 0
250 -252 0
251 252 -250 0
249 -250 0
-249 250 0
-239 253 0
-242 253 0
-245 253 0
-248 253 0
-251 253 0
253 -254 0
255 0
252 -253 0
-252 253 0
256 -257 0
256 -258 0
257 258 -256 0
259 -256 0
256 -259 0
260 -261 0
260 -262 0
261 262 -260 0
258 -260 0
-258 260 0
263 -264 0
263 -265 0
264 265 -263 0
262 -263 0
-262 263 0
266 -267 0
266 -268 0
267 268 -266 0
265 -266 0
-265 266 0
269 -270 0
269 -271 0
270 271 -269 0
268 -269 0
-268 269 0
272 -273 0
272 -274 0
273 274 -272 0
271 -272 0
-271 272 0
275 -276 0
275 -277 0
276 277 -275 0
274 -275 0
-274 275 0
-270 278 0
-273 278 0
-276 278 0
278 -279 0
270 273 276 279 -278 0
277 -278 0
-277 278 0
280 -281 0
280 -282 0
281 282 -280 0
283 -280 0
280 -283 0
284 -285 0
284 -286 0
285 286 -284 0
282 -284 0
-282 284 0
287 -288 0
287 -289 0
288 289 -287 0
286 -287 0
-286 287 0
290 -291 0
290 -292 0
291 292 -290 0
289 -290 0
-289 290 0
293 -294 0
293 -295 0
294 295 -293 0
292 -293 0
-292 293 0
-285 296 0
-288 296 0
-291 296 0
-294 296 0
296 -297 0
298 0
295 -296 0
-295 296 0
299 -300 0
299 -301 0
300 301 -299 0
302 -299 0
299 -302 0
303 -304 0
303 -305 0
304 305 -303 0
301 -303 0
-301 303 0
306 -307 0
306 -308 0
307 308 -306 0
305 -306 0
-305 306 0
309 -310 0
309 -311 0
310 311 -309 0
308 -309 0
-308 309 0
312 -313 0
312 -314 0
313 314 -312 0
311 -312 0
-311 312 0
315 -316 0
315 -317 0
316 317 -315 0
314 -315 0
-314 315 0
-304 318 0
-307 318 0
-310 318 0
-313 318 0
-316 318 0
318 -319 0
320 0
317 -318 0
-317 318 0
321 -322 0
321 -323 0
322 323 -321 0
324 -321 0
321 -324 0
325 -326 0
325 -327 0
326 327 -325 0
323 -325 0
-323 325 0
328 -329 0
328 -330 0
329 330 -328 0
327 -328 0
-327 328 0
331 -332 0
331 -333 0
332 333 -331 0
330 -331 0
-330 331 0
334 -335 0
334 -336 0
335 336 -334 0
333 -334 0
-333 334 0
337 -338 0
337 -339 0
338 339 -337 0
336 -337 0
-336 337 0
340 -341 0
340 -342 0
341 342 -340 0
339 -340 0
-339 340 0
343 -344 0
343 -345 0
344 345 -343 0
342 -343 0
-342 343 0
-338 346 0
-341 346 0
-344 346 0
346 -347 0
338 341 344 347 -346 0
345 -346 0
-345 346 0
348 -349 0
348 -350 0
349 350 -348 0
351 -348 0
348 -351 0
352 -353 0
352 -354 0
353 354 -352 0
350 -352 0
-350 352 0
355 -356 0
355 -357 0
356 357 -355 0
354 -355 0
-354 355 0
358 -359 0
358 -360 0
359 360 -358 0
357 -358 0
-357 358 0
361 -362 0
361 -363 0
362 363 -361 0
360 -361 0
-360 361 0
364 -365 0
364 -366 0
365 366 -364 0
363 -364 0
-363 364 0
367 -368 0
367 -369 0
368 369 -367 0
366 -367 0
-366 367 0
370 -371 0
370 -372 0
371 372 -370 0
369 -370 0
-369 370 0
373 -374 0
373 -375 0
374 375 -373 0
372 -373 0
-372 373 0
-365 376 0
-368 376 0
-371 376 0
-374 376 0
376 -377 0
378 0
375 -376 0
-375 376 0
379 -380 0
379 -381 0
380 381 -379 0
382 -379 0
379 -382 0
383 -384 0
383 -385 0
384 385 -383 0
381 -383 0
-381 383 0
386 -387 0
386 -388 0
387 388 -386 0
385 -386 0
-385 386 0
389 -390 0
389 -391 0
390 391 -389 0
388 -389 0
-388 389 0
392 -393 0
392 -394 0
393 394 -392 0
391 -392 0
-391 392 0
395 -396 0
395 -397 0
396 397 -395 0
394 -395 0
-394 395 0
398 -399 0
398 -400 0
399 400 -398 0
397 -398 0
-397 398 0
401 -402 0
401 -403 0
402 403 -401 0
400 -401 0
-400 401 0
404 -405 0
404 -406 0
405 406 -404 0
403 -404 0
-403 404 0
407 -408 0
407 -409 0
408 409 -407 0
406 -407 0
-406 407 0
410 -411 0
410 -412 0
411 412 -410 0
409 -410 0
-409 410 0
-399 413 0
-402 413 0
-405 413 0
-408 413 0
-411 413 0
413 -414 0
415 0
412 -413 0
-412 413 0
416 -417 0
416 -418 0
417 418 -416 0
419 -416 0
416 -419 0
420 -421 0
420 -422 0
421 422 -420 0
418 -420 0
-418 420 0
423 -424 0
423 -425 0
424 425 -423 0
422 -423 0
-422 423 0
426 -427 0
426 -428 0
427 428 -426 0
425 -426 0
-425 426 0
429 -430 0
429 -431 0
430 431 -429 0
428 -429 0
-428 429 0
432 -433 0
432 -434 0
433 434 -432 0
431 -432 0
-431 432 0
435 -436 0
435 -437 0
436 437 -435 0
434 -435 0
-434 435 0
-430 438 0
-433 438 0
-436 438 0
438 -439 0
430 433 436 439 -438 0
437 -438 0
-437 438 0
440 -441 0
440 -442 0
441 442 -440 0
443 -440 0
440 -443 0
444 -445 0
444 -446 0
445 446 -444 0
442 -444 0
-442 444 0
447 -448 0
447 -449 0
448 449 -447 0
446 -447 0
-446 447 0
450 -451 0
450 -452 0
451 452 -450 0
449 -450 0
-449 450 0
453 -454 0
453 -455 0
454 455 -453 0
452 -453 0
-452 453 0
456 -457 0
456 -458 0
457 458 -456 0
455 -456 0
-455 456 0
459 -460 0
459 -461 0
460 461 -459 0
458 -459 0
-458 459 0
462 -463 0
462 -464 0
463 464 -462 0
461 -462 0
-461 462 0
-451 465 0
-454 465 0
-457 465 0
-460 465 0
-463 465 0
465 -466 0
467 0
464 -465 0
-464 465 0
468 -469 0
468 -470 0
469 470 -468 0
471 -468 0
468 -471 0
472 -473 0
472 -474 0
473 474 -472 0
470 -472 0
-470 472 0
475 -476 0
475 -477 0
476 477 -475 0
474 -475 0
-474 475 0
478 -479 0
478 -480 0
479 480 -478 0
477 -478 0
-477 478 0
481 -482 0
481 -483 0
482 483 -481 0
480 -481 0
-480 481 0
484 -485 0
484 -486 0
485 486 -484 0
483 -484 0
-483 484 0
487 -488 0
487 -489 0
488 489 -487 0
486 -487 0
-486 487 0
490 -491 0
490 -492 0
491 492 -490 0
489 -490 0
-489 490 0
493 -494 0
493 -495 0
494 495 -493 0
492 -493 0
-492 493 0
496 -497 0
496 -498 0
497 498 -496 0
495 -496 0
-495 496 0
-485 499 0
-488 499 0
-491 499 0
-494 499 0
-497 499 0
499 -500 0
501 0
498 -499 0
-498 499 0
502 -503 0
502 -504 0
503 504 -502 0
505 -502 0
502 -505 0
506 -507 0
506 -508 0
507 508 -506 0
504 -506 0
-504 506 0
509 -510 0
509 -511 0
510 511 -509 0
508 -509 0
-508 509 0
512 -513 0
512 -514 0
513 514 -512 0
511 -512 0
-511 512 0
515 -516 0
515 -517 0
516 517 -515 0
514 -515 0
-514 515 0
518 -519 0
518 -520 0
519 520 -518 0
517 -518 0
-517 518 0
521 -522 0
521 -523 0
522 523 -521 0
520 -521 0
-520 521 0
524 -525 0
524 -526 0
525 526 -524 0
523 -524 0
-523 524 0
527 -528 0
527 -529 0
528 529 -527 0
526 -527 0
-526 527 0
-522 530 0
-525 530 0
-528 530 0
530 -531 0
522 525 528 531 -530 0
529 -530 0
-529 530 0
532 -533 0
532 -534 0
533 534 -532 0
535 -532 0
532 -535 0
536 -537 0
536 -538 0
537 538 -536 0
534 -536 0
-534 536 0
539 -540 0
539 -541 0
540 541 -539 0
538 -539 0
-538 539 0
542 -543 0
542 -544 0
543 544 -542 0
541 -542 0
-541 542 0
545 -546 0
545 -547 0
546 547 -545 0
544 -545 0
-544 545 0
548 -549 0
548 -550 0
549 550 -548 0
547 -548 0
-547 548 0
551 -552 0
551 -553 0
552 553 -551 0
550 -551 0
-550 551 0
554 -555 0
554 -556 0
555 556 -554 0
553 -554 0
-553 554 0
-546 557 0
-549 557 0
-552 557 0
-555 557 0
557 -558 0
559 0
556 -557 0
-556 557 0
560 -561 0
560 -562 0
561 562 -560 0
563 -560 0
560 -563 0
564 -565 0
564 -566 0
565 566 -564 0
562 -564 0
-562 564 0
567 -568 0
567 -569 0
568 569 -567 0
566 -567 0
-566 567 0
-561 570 0
-565 570 0
-568 570 0
570 -571 0
561 565 568 571 -570 0
569 -570 0
-569 570 0
572 -573 0
572 -574 0
573 574 -572 0
575 -572 0
572 -575 0
576 -577 0
576 -578 0
577 578 -576 0
574 -576 0
-574 576 0
579 -580 0
579 -581 0
580 581 -579 0
578 -579 0
-578 579 0
582 -583 0
582 -584 0
583 584 -582 0
581 -582 0
-581 582 0
585 -586 0
585 -587 0
586 587 -585 0
584 -585 0
-584 585 0
588 -589 0
588 -590 0
589 590 -588 0
587 -588 0
-587 588 0
591 -592 0
591 -593 0
592 593 -591 0
590 -591 0
-590 591 0
594 -595 0
594 -596 0
595 596 -594 0
593 -594 0
-593 594 0
-589 597 0
-592 597 0
-595 597 0
597 -598 0
589 592 595 598 -597 0
596 -597 0
-596 597 0
599 -600 0
599 -601 0
600 601 -599 0
602 -599 0
599 -602 0
603 -604 0
603 -605 0
604 605 -603 0
601 -603 0
-601 603 0
606 -607 0
606 -608 0
607 608 -606 0
605 -606 0
-605 606 0
609 -610 0
609 -611 0
610 611 -609 0
608 -609 0
-608 609 0
612 -613 0
612 -614 0
613 614 -612 0
611 -612 0
-611 612 0
615 -616 0
615 -617 0
616 617 -615 0
614 -615 0
-614 615 0
618 -619 0
618 -620 0
619 620 -618 0
617 -618 0
-617 618 0
621 -622 0
621 -623 0
622 623 -621 0
620 -621 0
-620 621 0
624 -625 0
624 -626 0
625 626 -624 0
623 -624 0
-623 624 0
627 -628 0
627 -629 0
628 629 -627 0
626 -627 0
-626 627 0
630 -631 0
630 -632 0
631 632 -630 0
629 -630 0
-629 630 0
-619 633 0
-622 633 0
-625 633 0
-628 633 0
-631 633 0
633 -634 0
635 0
632 -633 0
-632 633 0
636 -637 0
636 -638 0
637 638 -636 0
639 -636 0
636 -639 0
640 -641 0
640 -642 0
641 642 -640 0
638 -640 0
-638 640 0
643 -644 0
643 -645 0
644 645 -643 0
642 -643 0
-642 643 0
646 -647 0
646 -648 0
647 648 -646 0
645 -646 0
-645 646 0
649 -650 0
649 -651 0
650 651 -649 0
648 -649 0
-648 649 0
652 -653 0
652 -654 0
653 654 -652 0
651 -652 0
-651 652 0
655 -656 0
655 -657 0
656 657 -655 0
654 -655 0
-654 655 0
-647 658 0
-650 658 0
-653 658 0
-656 658 0
658 -659 0
660 0
657 -658 0
-657 658 0
661 -662 0
661 -663 0
662 663 -661 0
664 -661 0
661 -664 0
665 -666 0
665 -667 0
666 667 -665 0
663 -665 0
-663 665 0
668 -669 0
668 -670 0
669 670 -668 0
667 -668 0
-667 668 0
671 -672 0
671 -673 0
672 673 -671 0
670 -671 0
-670 671 0
674 -675 0
674 -676 0
675 676 -674 0
673 -674 0
-673 674 0
-669 677 0
-672 677 0
-675 677 0
677 -678 0
669 672 675 678 -677 0
676 -677 0
-676 677 0
679 -680 0
680 -679 0
681 -682 0
682 -681 0
683 -684 0
684 -683 0
685 -686 0
686 -685 0
687 -688 0
688 -687 0
689 -690 0
690 -689 0
691 -692 0
692 -691 0
693 -694 0
694 -693 0
695 -696 0
696 -695 0
697 -698 0
698 -697 0
699 -700 0
700 -699 0
701 -702 0
702 -701 0
703 -704 0
704 -703 0
705 -706 0
706 -705 0
707 -708 0
708 -707 0
709 -710 0
710 -709 0
711 -712 0
712 -711 0
713 -714 0
714 -713 0
715 -716 0
716 -715 0
717 -718 0
718 -717 0
719 -720 0
720 -719 0
721 -722 0
722 -721 0
723 -724 0
724 -723 0
725 -726 0
726 -725 0
727 -728 0
728 -727 0
4 0
38 0
62 0
96 0
130 0
157 0
168 0
195 0
225 0
259 0
283 0
302 0
324 0
351 0
382 0
419 0
443 0
471 0
505 0
535 0
563 0
575 0
602 0
639 0
664 0
-679 0
-681 0
-683 0
-685 0
-687 0
-689 0
-691 0
-693 0
-695 0
-697 0
-699 0
-701 0
-703 0
-705 0
-707 0
-709 0
-711 0
-713 0
-715 0
-717 0
-719 0
-721 0
-723 0
-725 0
-727 0
46 -144 0
144 -46 0
49 -147 0
147 -49 0
52 -150 0
150 -52 0
55 -153 0
153 -55 0
58 -141 0
141 -58 0
46 -185 0
185 -46 0
49 -188 0
188 -49 0
52 -191 0
191 -52 0
55 -179 0
179 -55 0
58 -182 0
182 -58 0
73 -107 0
107 -73 0
76 -110 0
110 -76 0
79 -113 0
113 -79 0
82 -116 0
116 -82 0
85 -119 0
119 -85 0
88 -122 0
122 -88 0
91 -125 0
125 -91 0
76 -500 0
500 -76 0
79 -485 0
485 -79 0
82 -488 0
488 -82 0
85 -491 0
491 -85 0
88 -494 0
494 -88 0
91 -497 0
497 -91 0
110 -500 0
500 -110 0
113 -485 0
485 -113 0
116 -488 0
488 -116 0
119 -491 0
491 -119 0
122 -494 0
494 -122 0
125 -497 0
497 -125 0
141 -182 0
182 -141 0
144 -185 0
185 -144 0
147 -188 0
188 -147 0
150 -191 0
191 -150 0
153 -179 0
179 -153 0
164 -680 0
680 -164 0
164 -682 0
682 -164 0
164 -684 0
684 -164 0
164 -686 0
686 -164 0
164 -688 0
688 -164 0
164 -690 0
690 -164 0
164 -692 0
692 -164 0
164 -694 0
694 -164 0
164 -696 0
696 -164 0
164 -698 0
698 -164 0
164 -700 0
700 -164 0
164 -702 0
702 -164 0
164 -704 0
704 -164 0
164 -706 0
706 -164 0
164 -708 0
708 -164 0
164 -710 0
710 -164 0
164 -712 0
712 -164 0
164 -714 0
714 -164 0
164 -716 0
716 -164 0
164 -718 0
718 -164 0
164 -720 0
720 -164 0
164 -722 0
722 -164 0
164 -724 0
724 -164 0
164 -726 0
726 -164 0
164 -728 0
728 -164 0
212 -276 0
276 -212 0
215 -279 0
279 -215 0
218 -270 0
270 -218 0
221 -273 0
273 -221 0
281 -362 0
362 -281 0
285 -365 0
365 -285 0
288 -368 0
368 -288 0
291 -371 0
371 -291 0
294 -374 0
374 -294 0
297 -377 0
377 -297 0
285 -653 0
653 -285 0
288 -656 0
656 -288 0
291 -659 0
659 -291 0
294 -647 0
647 -294 0
297 -650 0
650 -297 0
338 -568 0
568 -338 0
341 -571 0
571 -341 0
344 -561 0
561 -344 0
347 -565 0
565 -347 0
365 -653 0
653 -365 0
368 -656 0
656 -368 0
371 -659 0
659 -371 0
374 -647 0
647 -374 0
377 -650 0
650 -377 0
430 -531 0
531 -430 0
433 -522 0
522 -433 0
436 -525 0
525 -436 0
439 -528 0
528 -439 0
430 -598 0
598 -430 0
433 -589 0
589 -433 0
436 -592 0
592 -436 0
439 -595 0
595 -439 0
427 -666 0
666 -427 0
430 -669 0
669 -430 0
433 -672 0
672 -433 0
436 -675 0
675 -436 0
439 -678 0
678 -439 0
516 -583 0
583 -516 0
519 -586 0
586 -519 0
522 -589 0
589 -522 0
525 -592 0
592 -525 0
528 -595 0
595 -528 0
531 -598 0
598 -531 0
522 -672 0
672 -522 0
525 -675 0
675 -525 0
528 -678 0
678 -528 0
531 -669 0
669 -531 0
589 -672 0
672 -589 0
592 -675 0
675 -592 0
595 -678 0
678 -595 0
598 -669 0
669 -598 0
680 -682 0
682 -680 0
680 -684 0
684 -680 0
680 -686 0
686 -680 0
680 -688 0
688 -680 0
680 -690 0
690 -680 0
680 -692 0
692 -680 0
680 -694 0
694 -680 0
680 -696 0
696 -680 0
680 -698 0
698 -680 0
680 -700 0
700 -680 0
680 -702 0
702 -680 0
680 -704 0
704 -680 0
680 -706 0
706 -680 0
680 -708 0
708 -680 0
680 -710 0
710 -680 0
680 -712 0
712 -680 0
680 -714 0
714 -680 0
680 -716 0
716 -680 0
680 -718 0
718 -680 0
680 -720 0
720 -680 0
680 -722 0
722 -680 0
680 -724 0
724 -680 0
680 -726 0
726 -680 0
680 -728 0
728 -680 0
682 -684 0
684 -682 0
682 -686 0
686 -682 0
682 -688 0
688 -682 0
682 -690 0
690 -682 0
682 -692 0
692 -682 0
682 -694 0
694 -682 0
682 -696 0
696 -682 0
682 -698 0
698 -682 0
682 -700 0
700 -682 0
682 -702 0
702 -682 0
682 -704 0
704 -682 0
682 -706 0
706 -682 0
682 -708 0
708 -682 0
682 -710 0
710 -682 0
682 -712 0
712 -682 0
682 -714 0
714 -682 0
682 -716 0
716 -682 0
682 -718 0
718 -682 0
682 -720 0
720 -682 0
682 -722 0
722 -682 0
682 -724 0
724 -682 0
682 -726 0
726 -682 0
682 -728 0
728 -682 0
684 -686 0
686 -684 0
684 -688 0
688 -684 0
684 -690 0
690 -684 0
684 -692 0
692 -684 0
684 -694 0
694 -684 0
684 -696 0
696 -684 0
684 -698 0
698 -684 0
684 -700 0
700 -684 0
684 -702 0
702 -684 0
684 -704 0
704 -684 0
684 -706 0
706 -684 0
684 -708 0
708 -684 0
684 -710 0
710 -684 0
684 -712 0
712 -684 0
684 -714 0
714 -684 0
684 -716 0
716 -684 0
684 -718 0
718 -684 0
684 -720 0
720 -684 0
684 -722 0
722 -684 0
684 -724 0
724 -684 0
684 -726 0
726 -684 0
684 -728 0
728 -684 0
686 -688 0
688 -686 0
686 -690 0
690 -686 0
686 -692 0
692 -686 0
686 -694 0
694 -686 0
686 -696 0
696 -686 0
686 -698 0
698 -686 0
686 -700 0
700 -686 0
686 -702 0
702 -686 0
686 -704 0
704 -686 0
686 -706 0
706 -686 0
686 -708 0
708 -686 0
686 -710 0
710 -686 0
686 -712 0
712 -686 0
686 -714 0
714 -686 0
686 -716 0
716 -686 0
686 -718 0
718 -686 0
686 -720 0
720 -686 0
686 -722 0
722 -686 0
686 -724 0
724 -686 0
686 -726 0
726 -686 0
686 -728 0
728 -686 0
688 -690 0
690 -688 0
688 -692 0
692 -688 0
688 -694 0
694 -688 0
688 -696 0
696 -688 0
688 -698 0
698 -688 0
688 -700 0
700 -688 0
688 -702 0
702 -688 0
688 -704 0
704 -688 0
688 -706 0
706 -688 0
688 -708 0
708 -688 0
688 -710 0
710 -688 0
688 -712 0
712 -688 0
688 -714 0
714 -688 0
688 -716 0
716 -688 0
688 -718 0
718 -688 0
688 -720 0
720 -688 0
688 -722 0
722 -688 0
688 -724 0
724 -688 0
688 -726 0
726 -688 0
688 -728 0
728 -688 0
690 -692 0
692 -690 0
690 -694 0
694 -690 0
690 -696 0
696 -690 0
690 -698 0
698 -690 0
690 -700 0
700 -690 0
690 -702 0
702 -690 0
690 -704 0
704 -690 0
690 -706 0
706 -690 0
690 -708 0
708 -690 0
690 -710 0
710 -690 0
690 -712 0
712 -690 0
690 -714 0
714 -690 0
690 -716 0
716 -690 0
690 -718 0
718 -690 0
690 -720 0
720 -690 0
690 -722 0
722 -690 0
690 -724 0
724 -690 0
690 -726 0
726 -690 0
690 -728 0
728 -690 0
692 -694 0
694 -692 0
692 -696 0
696 -692 0
692 -698 0
698 -692 0
692 -700 0
700 -692 0
692 -702 0
702 -692 0
692 -704 0
704 -692 0
692 -706 0
706 -692 0
692 -708 0
708 -692 0
692 -710 0
710 -692 0
692 -712 0
712 -692 0
692 -714 0
714 -692 0
692 -716 0
716 -692 0
692 -718 0
718 -692 0
692 -720 0
720 -692 0
692 -722 0
722 -692 0
692 -724 0
724 -692 0
692 -726 0
726 -692 0
692 -728 0
728 -692 0
694 -696 0
696 -694 0
694 -698 0
698 -694 0
694 -700 0
700 -694 0
694 -702 0
702 -694 0
694 -704 0
704 -694 0
694 -706 0
706 -694 0
694 -708 0
708 -694 0
694 -710 0
710 -694 0
694 -712 0
712 -694 0
694 -714 0
714 -694 0
694 -716 0
716 -694 0
694 -718 0
718 -694 0
694 -720 0
720 -694 0
694 -722 0
722 -694 0
694 -724 0
724 -694 0
694 -726 0
726 -694 0
694 -728 0
728 -694 0
696 -698 0
698 -696 0
696 -700 0
700 -696 0
696 -702 0
702 -696 0
696 -704 0
704 -696 0
696 -706 0
706 -696 0
696 -708 0
708 -696 0
696 -710 0
710 -696 0
696 -712 0
712 -696 0
696 -714 0
714 -696 0
696 -716 0
716 -696 0
696 -718 0
718 -696 0
696 -720 0
720 -696 0
696 -722 0
722 -696 0
696 -724 0
724 -696 0
696 -726 0
726 -696 0
696 -728 0
728 -696 0
698 -700 0
700 -698 0
698 -702 0
702 -698 0
698 -704 0
704 -698 0
698 -706 0
706 -698 0
698 -708 0
708 -698 0
698 -710 0
710 -698 0
698 -712 0
712 -698 0
698 -714 0
714 -698 0
698 -716 0
716 -698 0
698 -718 0
718 -698 0
698 -720 0
720 -698 0
698 -722 0
722 -698 0
698 -724 0
724 -698 0
698 -726 0
726 -698 0
698 -728 0
728 -698 0
700 -702 0
702 -700 0
700 -704 0
704 -700 0
700 -706 0
706 -700 0
700 -708 0
708 -700 0
700 -710 0
710 -700 0
700 -712 0
712 -700 0
700 -714 0
714 -700 0
700 -716 0
716 -700 0
700 -718 0
718 -700 0
700 -720 0
720 -700 0
700 -722 0
722 -700 0
700 -724 0
724 -700 0
700 -726 0
726 -700 0
700 -728 0
728 -700 0
702 -704 0
704 -702 0
702 -706 0
706 -702 0
702 -708 0
708 -702 0
702 -710 0
710 -702 0
702 -712 0
712 -702 0
702 -714 0
714 -702 0
702 -716 0
716 -702 0
702 -718 0
718 -702 0
702 -720 0
720 -702 0
702 -722 0
722 -702 0
702 -724 0
724 -702 0
702 -726 0
726 -702 0
702 -728 0
728 -702 0
704 -706 0
706 -704 0
704 -708 0
708 -704 0
704 -710 0
710 -704 0
704 -712 0
712 -704 0
704 -714 0
714 -704 0
704 -716 0
716 -704 0
704 -718 0
718 -704 0
704 -720 0
720 -704 0
704 -722 0
722 -704 0
704 -724 0
724 -704 0
704 -726 0
726 -704 0
704 -728 0
728 -704 0
706 -708 0
708 -706 0
706 -710 0
710 -706 0
706 -712 0
712 -706 0
706 -714 0
714 -706 0
706 -716 0
716 -706 0
706 -718 0
718 -706 0
706 -720 0
720 -706 0
706 -722 0
722 -706 0
706 -724 0
724 -706 0
706 -726 0
726 -706 0
706 -728 0
728 -706 0
708 -710 0
710 -708 0
708 -712 0
712 -708 0
708 -714 0
714 -708 0
708 -716 0
716 -708 0
708 -718 0
718 -708 0
708 -720 0
720 -708 0
708 -722 0
722 -708 0
708 -724 0
724 -708 0
708 -726 0
726 -708 0
708 -728 0
728 -708 0
710 -712 0
712 -710 0
710 -714 0
714 -710 0
710 -716 0
716 -710 0
710 -718 0
718 -710 0
710 -720 0
720 -710 0
710 -722 0
722 -710 0
710 -724 0
724 -710 0
710 -726 0
726 -710 0
710 -728 0
728 -710 0
712 -714 0
714 -712 0
712 -716 0
716 -712 0
712 -718 0
718 -712 0
712 -720 0
720 -712 0
712 -722 0
722 -712 0
712 -724 0
724 -712 0
712 -726 0
726 -712 0
712 -728 0
728 -712 0
714 -716 0
716 -714 0
714 -718 0
718 -714 0
714 -720 0
720 -714 0
714 -722 0
722 -714 0
714 -724 0
724 -714 0
714 -726 0
726 -714 0
714 -728 0
728 -714 0
716 -718 0
718 -716 0
716 -720 0
720 -716 0
716 -722 0
722 -716 0
716 -724 0
724 -716 0
716 -726 0
726 -716 0
716 -728 0
728 -716 0
718 -720 0
720 -718 0
718 -722 0
722 -718 0
718 -724 0
724 -718 0
718 -726 0
726 -718 0
718 -728 0
728 -718 0
720 -722 0
722 -720 0
720 -724 0
724 -720 0
720 -726 0
726 -720 0
720 -728 0
728 -720 0
722 -724 0
724 -722 0
722 -726 0
726 -722 0
722 -728 0
728 -722 0
724 -726 0
726 -724 0
724 -728 0
728 -724 0
726 -728 0
728 -726 0
